\* SimpleModel *\
Minimize
OBJ: 15000 h_Center_A_2023 + 15000 h_Center_A_2024 + 15000 h_Center_A_2025
 + 15000 h_Center_B_2023 + 15000 h_Center_B_2024 + 15000 h_Center_B_2025
 + 15000 h_Center_C_2023 + 15000 h_Center_C_2024 + 15000 h_Center_C_2025
 + 15000 h_Center_D_2023 + 15000 h_Center_D_2024 + 15000 h_Center_D_2025
 + 15000 h_Center_E_2023 + 15000 h_Center_E_2024 + 15000 h_Center_E_2025
 + 15000 h_Center_F_2023 + 15000 h_Center_F_2024 + 15000 h_Center_F_2025
 + 2.2925 x_Center_A_Downtown_Toronto_2023
 + 3.23875 x_Center_A_Downtown_Toronto_2024
 + 4.20865625 x_Center_A_Downtown_Toronto_2025
 - 3.59 x_Center_A_East_York_2023 - 2.64375 x_Center_A_East_York_2024
 - 1.67384375 x_Center_A_East_York_2025 + 2.28 x_Center_A_Etobicoke_2023
 + 3.22625 x_Center_A_Etobicoke_2024 + 4.19615625 x_Center_A_Etobicoke_2025
 + 3.0125 x_Center_A_Mississauga_East_2023
 + 3.95875 x_Center_A_Mississauga_East_2024
 + 4.92865625 x_Center_A_Mississauga_East_2025
 - 1.24 x_Center_A_North_Toronto_2023 - 0.29375 x_Center_A_North_Toronto_2024
 + 0.67615625 x_Center_A_North_Toronto_2025 - 4.15 x_Center_A_North_York_2023
 - 3.20375 x_Center_A_North_York_2024 - 2.23384375 x_Center_A_North_York_2025
 + 0.79 x_Center_A_Scarborough_East_2023
 + 1.73625 x_Center_A_Scarborough_East_2024
 + 2.70615625 x_Center_A_Scarborough_East_2025
 + 3.32 x_Center_B_Downtown_Toronto_2023
 + 4.26625 x_Center_B_Downtown_Toronto_2024
 + 5.23615625 x_Center_B_Downtown_Toronto_2025
 - 0.14 x_Center_B_East_York_2023 + 0.80625 x_Center_B_East_York_2024
 + 1.77615625 x_Center_B_East_York_2025 + 3.6275 x_Center_B_Etobicoke_2023
 + 4.57375 x_Center_B_Etobicoke_2024 + 5.54365625 x_Center_B_Etobicoke_2025
 + 4.3325 x_Center_B_Mississauga_East_2023
 + 5.27875 x_Center_B_Mississauga_East_2024
 + 6.24865625 x_Center_B_Mississauga_East_2025
 + 2.1125 x_Center_B_North_Toronto_2023
 + 3.05875 x_Center_B_North_Toronto_2024
 + 4.02865625 x_Center_B_North_Toronto_2025 + 1.595 x_Center_B_North_York_2023
 + 2.54125 x_Center_B_North_York_2024 + 3.51115625 x_Center_B_North_York_2025
 - 4.15 x_Center_B_Scarborough_East_2023
 - 3.20375 x_Center_B_Scarborough_East_2024
 - 2.23384375 x_Center_B_Scarborough_East_2025
 + 0.625 x_Center_C_Downtown_Toronto_2023
 + 1.57125 x_Center_C_Downtown_Toronto_2024
 + 2.54115625 x_Center_C_Downtown_Toronto_2025
 + 1.4625 x_Center_C_East_York_2023 + 2.40875 x_Center_C_East_York_2024
 + 3.37865625 x_Center_C_East_York_2025 + 2.5825 x_Center_C_Etobicoke_2023
 + 3.52875 x_Center_C_Etobicoke_2024 + 4.49865625 x_Center_C_Etobicoke_2025
 + 1.245 x_Center_C_Mississauga_East_2023
 + 2.19125 x_Center_C_Mississauga_East_2024
 + 3.16115625 x_Center_C_Mississauga_East_2025
 + 1.5975 x_Center_C_North_Toronto_2023
 + 2.54375 x_Center_C_North_Toronto_2024
 + 3.51365625 x_Center_C_North_Toronto_2025 + 0.98 x_Center_C_North_York_2023
 + 1.92625 x_Center_C_North_York_2024 + 2.89615625 x_Center_C_North_York_2025
 - 0.435 x_Center_C_Scarborough_East_2023
 + 0.51125 x_Center_C_Scarborough_East_2024
 + 1.48115625 x_Center_C_Scarborough_East_2025
 + 3.32 x_Center_D_Downtown_Toronto_2023
 + 4.26625 x_Center_D_Downtown_Toronto_2024
 + 5.23615625 x_Center_D_Downtown_Toronto_2025
 - 0.14 x_Center_D_East_York_2023 + 0.80625 x_Center_D_East_York_2024
 + 1.77615625 x_Center_D_East_York_2025 + 3.6275 x_Center_D_Etobicoke_2023
 + 4.57375 x_Center_D_Etobicoke_2024 + 5.54365625 x_Center_D_Etobicoke_2025
 - 4.15 x_Center_D_Mississauga_East_2023
 - 3.20375 x_Center_D_Mississauga_East_2024
 - 2.23384375 x_Center_D_Mississauga_East_2025
 + 2.1125 x_Center_D_North_Toronto_2023
 + 3.05875 x_Center_D_North_Toronto_2024
 + 4.02865625 x_Center_D_North_Toronto_2025 + 1.595 x_Center_D_North_York_2023
 + 2.54125 x_Center_D_North_York_2024 + 3.51115625 x_Center_D_North_York_2025
 + 2.545 x_Center_D_Scarborough_East_2023
 + 3.49125 x_Center_D_Scarborough_East_2024
 + 4.46115625 x_Center_D_Scarborough_East_2025
 - 2.5575 x_Center_E_Downtown_Toronto_2023
 - 1.61125 x_Center_E_Downtown_Toronto_2024
 - 0.64134375 x_Center_E_Downtown_Toronto_2025
 + 1.0825 x_Center_E_East_York_2023 + 2.02875 x_Center_E_East_York_2024
 + 2.99865625 x_Center_E_East_York_2025 + 1.65 x_Center_E_Etobicoke_2023
 + 2.59625 x_Center_E_Etobicoke_2024 + 3.56615625 x_Center_E_Etobicoke_2025
 + 1.0125 x_Center_E_Mississauga_East_2023
 + 1.95875 x_Center_E_Mississauga_East_2024
 + 2.92865625 x_Center_E_Mississauga_East_2025
 - 4.15 x_Center_E_North_Toronto_2023 - 3.20375 x_Center_E_North_Toronto_2024
 - 2.23384375 x_Center_E_North_Toronto_2025 - 1.24 x_Center_E_North_York_2023
 - 0.29375 x_Center_E_North_York_2024 + 0.67615625 x_Center_E_North_York_2025
 + 2.3225 x_Center_E_Scarborough_East_2023
 + 3.26875 x_Center_E_Scarborough_East_2024
 + 4.23865625 x_Center_E_Scarborough_East_2025
 + 0.5575 x_Center_F_Downtown_Toronto_2023
 + 1.50375 x_Center_F_Downtown_Toronto_2024
 + 2.47365625 x_Center_F_Downtown_Toronto_2025
 + 3.525 x_Center_F_East_York_2023 + 4.47125 x_Center_F_East_York_2024
 + 5.44115625 x_Center_F_East_York_2025 + 2.26 x_Center_F_Etobicoke_2023
 + 3.20625 x_Center_F_Etobicoke_2024 + 4.17615625 x_Center_F_Etobicoke_2025
 - 4.15 x_Center_F_Mississauga_East_2023
 - 3.20375 x_Center_F_Mississauga_East_2024
 - 2.23384375 x_Center_F_Mississauga_East_2025
 + 1.0125 x_Center_F_North_Toronto_2023
 + 1.95875 x_Center_F_North_Toronto_2024
 + 2.92865625 x_Center_F_North_Toronto_2025
 + 3.0125 x_Center_F_North_York_2023 + 3.95875 x_Center_F_North_York_2024
 + 4.92865625 x_Center_F_North_York_2025
 + 0.1025 x_Center_F_Scarborough_East_2023
 + 1.04875 x_Center_F_Scarborough_East_2024
 + 2.01865625 x_Center_F_Scarborough_East_2025 + 275000 y_Center_A_2023
 + 275000 y_Center_A_2024 + 275000 y_Center_A_2025 + 275000 y_Center_B_2023
 + 275000 y_Center_B_2024 + 275000 y_Center_B_2025 + 275000 y_Center_C_2023
 + 275000 y_Center_C_2024 + 275000 y_Center_C_2025 + 285000 y_Center_D_2023
 + 285000 y_Center_D_2024 + 285000 y_Center_D_2025 + 375000 y_Center_E_2023
 + 125000 y_Center_E_2024 + 125000 y_Center_E_2025 + 275000 y_Center_F_2023
 + 175000 y_Center_F_2024 + 175000 y_Center_F_2025
Subject To
_C1: x_Center_A_Downtown_Toronto_2023 + x_Center_B_Downtown_Toronto_2023
 + x_Center_C_Downtown_Toronto_2023 + x_Center_D_Downtown_Toronto_2023
 + x_Center_E_Downtown_Toronto_2023 + x_Center_F_Downtown_Toronto_2023
 = 404356.671308
_C10: x_Center_A_Etobicoke_2024 + x_Center_B_Etobicoke_2024
 + x_Center_C_Etobicoke_2024 + x_Center_D_Etobicoke_2024
 + x_Center_E_Etobicoke_2024 + x_Center_F_Etobicoke_2024 = 486701.268605
_C11: x_Center_A_Mississauga_East_2024 + x_Center_B_Mississauga_East_2024
 + x_Center_C_Mississauga_East_2024 + x_Center_D_Mississauga_East_2024
 + x_Center_E_Mississauga_East_2024 + x_Center_F_Mississauga_East_2024
 = 431991.748029
_C12: x_Center_A_North_Toronto_2024 + x_Center_B_North_Toronto_2024
 + x_Center_C_North_Toronto_2024 + x_Center_D_North_Toronto_2024
 + x_Center_E_North_Toronto_2024 + x_Center_F_North_Toronto_2024
 = 442933.90839
_C13: x_Center_A_North_York_2024 + x_Center_B_North_York_2024
 + x_Center_C_North_York_2024 + x_Center_D_North_York_2024
 + x_Center_E_North_York_2024 + x_Center_F_North_York_2024 = 540484.166895
_C14: x_Center_A_Scarborough_East_2024 + x_Center_B_Scarborough_East_2024
 + x_Center_C_Scarborough_East_2024 + x_Center_D_Scarborough_East_2024
 + x_Center_E_Scarborough_East_2024 + x_Center_F_Scarborough_East_2024
 = 473194.343318
_C15: x_Center_A_Downtown_Toronto_2025 + x_Center_B_Downtown_Toronto_2025
 + x_Center_C_Downtown_Toronto_2025 + x_Center_D_Downtown_Toronto_2025
 + x_Center_E_Downtown_Toronto_2025 + x_Center_F_Downtown_Toronto_2025
 = 441433.38481
_C16: x_Center_A_East_York_2025 + x_Center_B_East_York_2025
 + x_Center_C_East_York_2025 + x_Center_D_East_York_2025
 + x_Center_E_East_York_2025 + x_Center_F_East_York_2025 = 305849.753292
_C17: x_Center_A_Etobicoke_2025 + x_Center_B_Etobicoke_2025
 + x_Center_C_Etobicoke_2025 + x_Center_D_Etobicoke_2025
 + x_Center_E_Etobicoke_2025 + x_Center_F_Etobicoke_2025 = 508784.327687
_C18: x_Center_A_Mississauga_East_2025 + x_Center_B_Mississauga_East_2025
 + x_Center_C_Mississauga_East_2025 + x_Center_D_Mississauga_East_2025
 + x_Center_E_Mississauga_East_2025 + x_Center_F_Mississauga_East_2025
 = 451328.582677
_C19: x_Center_A_North_Toronto_2025 + x_Center_B_North_Toronto_2025
 + x_Center_C_North_Toronto_2025 + x_Center_D_North_Toronto_2025
 + x_Center_E_North_Toronto_2025 + x_Center_F_North_Toronto_2025
 = 462558.03922
_C2: x_Center_A_East_York_2023 + x_Center_B_East_York_2023
 + x_Center_C_East_York_2023 + x_Center_D_East_York_2023
 + x_Center_E_East_York_2023 + x_Center_F_East_York_2023 = 280112.632011
_C20: x_Center_A_North_York_2025 + x_Center_B_North_York_2025
 + x_Center_C_North_York_2025 + x_Center_D_North_York_2025
 + x_Center_E_North_York_2025 + x_Center_F_North_York_2025 = 565120.916933
_C21: x_Center_A_Scarborough_East_2025 + x_Center_B_Scarborough_East_2025
 + x_Center_C_Scarborough_East_2025 + x_Center_D_Scarborough_East_2025
 + x_Center_E_Scarborough_East_2025 + x_Center_F_Scarborough_East_2025
 = 494187.79816
_C22: x_Center_A_Downtown_Toronto_2023 + x_Center_A_East_York_2023
 + x_Center_A_Etobicoke_2023 + x_Center_A_Mississauga_East_2023
 + x_Center_A_North_Toronto_2023 + x_Center_A_North_York_2023
 + x_Center_A_Scarborough_East_2023 - 5000000 y_Center_A_2023 <= 0
_C23: x_Center_B_Downtown_Toronto_2023 + x_Center_B_East_York_2023
 + x_Center_B_Etobicoke_2023 + x_Center_B_Mississauga_East_2023
 + x_Center_B_North_Toronto_2023 + x_Center_B_North_York_2023
 + x_Center_B_Scarborough_East_2023 - 5000000 y_Center_B_2023 <= 0
_C24: x_Center_C_Downtown_Toronto_2023 + x_Center_C_East_York_2023
 + x_Center_C_Etobicoke_2023 + x_Center_C_Mississauga_East_2023
 + x_Center_C_North_Toronto_2023 + x_Center_C_North_York_2023
 + x_Center_C_Scarborough_East_2023 - 5000000 y_Center_C_2023 <= 0
_C25: x_Center_D_Downtown_Toronto_2023 + x_Center_D_East_York_2023
 + x_Center_D_Etobicoke_2023 + x_Center_D_Mississauga_East_2023
 + x_Center_D_North_Toronto_2023 + x_Center_D_North_York_2023
 + x_Center_D_Scarborough_East_2023 - 5000000 y_Center_D_2023 <= 0
_C26: x_Center_E_Downtown_Toronto_2023 + x_Center_E_East_York_2023
 + x_Center_E_Etobicoke_2023 + x_Center_E_Mississauga_East_2023
 + x_Center_E_North_Toronto_2023 + x_Center_E_North_York_2023
 + x_Center_E_Scarborough_East_2023 - 5000000 y_Center_E_2023 <= 0
_C27: x_Center_F_Downtown_Toronto_2023 + x_Center_F_East_York_2023
 + x_Center_F_Etobicoke_2023 + x_Center_F_Mississauga_East_2023
 + x_Center_F_North_Toronto_2023 + x_Center_F_North_York_2023
 + x_Center_F_Scarborough_East_2023 - 5000000 y_Center_F_2023 <= 0
_C28: x_Center_A_Downtown_Toronto_2024 + x_Center_A_East_York_2024
 + x_Center_A_Etobicoke_2024 + x_Center_A_Mississauga_East_2024
 + x_Center_A_North_Toronto_2024 + x_Center_A_North_York_2024
 + x_Center_A_Scarborough_East_2024 - 5000000 y_Center_A_2024 <= 0
_C29: x_Center_B_Downtown_Toronto_2024 + x_Center_B_East_York_2024
 + x_Center_B_Etobicoke_2024 + x_Center_B_Mississauga_East_2024
 + x_Center_B_North_Toronto_2024 + x_Center_B_North_York_2024
 + x_Center_B_Scarborough_East_2024 - 5000000 y_Center_B_2024 <= 0
_C3: x_Center_A_Etobicoke_2023 + x_Center_B_Etobicoke_2023
 + x_Center_C_Etobicoke_2023 + x_Center_D_Etobicoke_2023
 + x_Center_E_Etobicoke_2023 + x_Center_F_Etobicoke_2023 = 465576.69325
_C30: x_Center_C_Downtown_Toronto_2024 + x_Center_C_East_York_2024
 + x_Center_C_Etobicoke_2024 + x_Center_C_Mississauga_East_2024
 + x_Center_C_North_Toronto_2024 + x_Center_C_North_York_2024
 + x_Center_C_Scarborough_East_2024 - 5000000 y_Center_C_2024 <= 0
_C31: x_Center_D_Downtown_Toronto_2024 + x_Center_D_East_York_2024
 + x_Center_D_Etobicoke_2024 + x_Center_D_Mississauga_East_2024
 + x_Center_D_North_Toronto_2024 + x_Center_D_North_York_2024
 + x_Center_D_Scarborough_East_2024 - 5000000 y_Center_D_2024 <= 0
_C32: x_Center_E_Downtown_Toronto_2024 + x_Center_E_East_York_2024
 + x_Center_E_Etobicoke_2024 + x_Center_E_Mississauga_East_2024
 + x_Center_E_North_Toronto_2024 + x_Center_E_North_York_2024
 + x_Center_E_Scarborough_East_2024 - 5000000 y_Center_E_2024 <= 0
_C33: x_Center_F_Downtown_Toronto_2024 + x_Center_F_East_York_2024
 + x_Center_F_Etobicoke_2024 + x_Center_F_Mississauga_East_2024
 + x_Center_F_North_Toronto_2024 + x_Center_F_North_York_2024
 + x_Center_F_Scarborough_East_2024 - 5000000 y_Center_F_2024 <= 0
_C34: x_Center_A_Downtown_Toronto_2025 + x_Center_A_East_York_2025
 + x_Center_A_Etobicoke_2025 + x_Center_A_Mississauga_East_2025
 + x_Center_A_North_Toronto_2025 + x_Center_A_North_York_2025
 + x_Center_A_Scarborough_East_2025 - 5000000 y_Center_A_2025 <= 0
_C35: x_Center_B_Downtown_Toronto_2025 + x_Center_B_East_York_2025
 + x_Center_B_Etobicoke_2025 + x_Center_B_Mississauga_East_2025
 + x_Center_B_North_Toronto_2025 + x_Center_B_North_York_2025
 + x_Center_B_Scarborough_East_2025 - 5000000 y_Center_B_2025 <= 0
_C36: x_Center_C_Downtown_Toronto_2025 + x_Center_C_East_York_2025
 + x_Center_C_Etobicoke_2025 + x_Center_C_Mississauga_East_2025
 + x_Center_C_North_Toronto_2025 + x_Center_C_North_York_2025
 + x_Center_C_Scarborough_East_2025 - 5000000 y_Center_C_2025 <= 0
_C37: x_Center_D_Downtown_Toronto_2025 + x_Center_D_East_York_2025
 + x_Center_D_Etobicoke_2025 + x_Center_D_Mississauga_East_2025
 + x_Center_D_North_Toronto_2025 + x_Center_D_North_York_2025
 + x_Center_D_Scarborough_East_2025 - 5000000 y_Center_D_2025 <= 0
_C38: x_Center_E_Downtown_Toronto_2025 + x_Center_E_East_York_2025
 + x_Center_E_Etobicoke_2025 + x_Center_E_Mississauga_East_2025
 + x_Center_E_North_Toronto_2025 + x_Center_E_North_York_2025
 + x_Center_E_Scarborough_East_2025 - 5000000 y_Center_E_2025 <= 0
_C39: x_Center_F_Downtown_Toronto_2025 + x_Center_F_East_York_2025
 + x_Center_F_Etobicoke_2025 + x_Center_F_Mississauga_East_2025
 + x_Center_F_North_Toronto_2025 + x_Center_F_North_York_2025
 + x_Center_F_Scarborough_East_2025 - 5000000 y_Center_F_2025 <= 0
_C4: x_Center_A_Mississauga_East_2023 + x_Center_B_Mississauga_East_2023
 + x_Center_C_Mississauga_East_2023 + x_Center_D_Mississauga_East_2023
 + x_Center_E_Mississauga_East_2023 + x_Center_F_Mississauga_East_2023
 = 413483.38556
_C40: - 1500 h_Center_A_2023 - 1500 w_Center_A_2023
 + x_Center_A_Downtown_Toronto_2023 + x_Center_A_East_York_2023
 + x_Center_A_Etobicoke_2023 + x_Center_A_Mississauga_East_2023
 + x_Center_A_North_Toronto_2023 + x_Center_A_North_York_2023
 + x_Center_A_Scarborough_East_2023 <= 0
_C41: - 1500 h_Center_B_2023 - 1500 w_Center_B_2023
 + x_Center_B_Downtown_Toronto_2023 + x_Center_B_East_York_2023
 + x_Center_B_Etobicoke_2023 + x_Center_B_Mississauga_East_2023
 + x_Center_B_North_Toronto_2023 + x_Center_B_North_York_2023
 + x_Center_B_Scarborough_East_2023 <= 0
_C42: - 1500 h_Center_C_2023 - 1500 w_Center_C_2023
 + x_Center_C_Downtown_Toronto_2023 + x_Center_C_East_York_2023
 + x_Center_C_Etobicoke_2023 + x_Center_C_Mississauga_East_2023
 + x_Center_C_North_Toronto_2023 + x_Center_C_North_York_2023
 + x_Center_C_Scarborough_East_2023 <= 0
_C43: - 1500 h_Center_D_2023 - 1500 w_Center_D_2023
 + x_Center_D_Downtown_Toronto_2023 + x_Center_D_East_York_2023
 + x_Center_D_Etobicoke_2023 + x_Center_D_Mississauga_East_2023
 + x_Center_D_North_Toronto_2023 + x_Center_D_North_York_2023
 + x_Center_D_Scarborough_East_2023 <= 0
_C44: - 1500 h_Center_E_2023 - 1500 w_Center_E_2023
 + x_Center_E_Downtown_Toronto_2023 + x_Center_E_East_York_2023
 + x_Center_E_Etobicoke_2023 + x_Center_E_Mississauga_East_2023
 + x_Center_E_North_Toronto_2023 + x_Center_E_North_York_2023
 + x_Center_E_Scarborough_East_2023 <= 0
_C45: - 1500 h_Center_F_2023 - 1500 w_Center_F_2023
 + x_Center_F_Downtown_Toronto_2023 + x_Center_F_East_York_2023
 + x_Center_F_Etobicoke_2023 + x_Center_F_Mississauga_East_2023
 + x_Center_F_North_Toronto_2023 + x_Center_F_North_York_2023
 + x_Center_F_Scarborough_East_2023 <= 0
_C46: - 1500 h_Center_A_2024 - 1500 w_Center_A_2024
 + x_Center_A_Downtown_Toronto_2024 + x_Center_A_East_York_2024
 + x_Center_A_Etobicoke_2024 + x_Center_A_Mississauga_East_2024
 + x_Center_A_North_Toronto_2024 + x_Center_A_North_York_2024
 + x_Center_A_Scarborough_East_2024 <= 0
_C47: - 1500 h_Center_B_2024 - 1500 w_Center_B_2024
 + x_Center_B_Downtown_Toronto_2024 + x_Center_B_East_York_2024
 + x_Center_B_Etobicoke_2024 + x_Center_B_Mississauga_East_2024
 + x_Center_B_North_Toronto_2024 + x_Center_B_North_York_2024
 + x_Center_B_Scarborough_East_2024 <= 0
_C48: - 1500 h_Center_C_2024 - 1500 w_Center_C_2024
 + x_Center_C_Downtown_Toronto_2024 + x_Center_C_East_York_2024
 + x_Center_C_Etobicoke_2024 + x_Center_C_Mississauga_East_2024
 + x_Center_C_North_Toronto_2024 + x_Center_C_North_York_2024
 + x_Center_C_Scarborough_East_2024 <= 0
_C49: - 1500 h_Center_D_2024 - 1500 w_Center_D_2024
 + x_Center_D_Downtown_Toronto_2024 + x_Center_D_East_York_2024
 + x_Center_D_Etobicoke_2024 + x_Center_D_Mississauga_East_2024
 + x_Center_D_North_Toronto_2024 + x_Center_D_North_York_2024
 + x_Center_D_Scarborough_East_2024 <= 0
_C5: x_Center_A_North_Toronto_2023 + x_Center_B_North_Toronto_2023
 + x_Center_C_North_Toronto_2023 + x_Center_D_North_Toronto_2023
 + x_Center_E_North_Toronto_2023 + x_Center_F_North_Toronto_2023
 = 424142.335808
_C50: - 1500 h_Center_E_2024 - 1500 w_Center_E_2024
 + x_Center_E_Downtown_Toronto_2024 + x_Center_E_East_York_2024
 + x_Center_E_Etobicoke_2024 + x_Center_E_Mississauga_East_2024
 + x_Center_E_North_Toronto_2024 + x_Center_E_North_York_2024
 + x_Center_E_Scarborough_East_2024 <= 0
_C51: - 1500 h_Center_F_2024 - 1500 w_Center_F_2024
 + x_Center_F_Downtown_Toronto_2024 + x_Center_F_East_York_2024
 + x_Center_F_Etobicoke_2024 + x_Center_F_Mississauga_East_2024
 + x_Center_F_North_Toronto_2024 + x_Center_F_North_York_2024
 + x_Center_F_Scarborough_East_2024 <= 0
_C52: - 1500 h_Center_A_2025 - 1500 w_Center_A_2025
 + x_Center_A_Downtown_Toronto_2025 + x_Center_A_East_York_2025
 + x_Center_A_Etobicoke_2025 + x_Center_A_Mississauga_East_2025
 + x_Center_A_North_Toronto_2025 + x_Center_A_North_York_2025
 + x_Center_A_Scarborough_East_2025 <= 0
_C53: - 1500 h_Center_B_2025 - 1500 w_Center_B_2025
 + x_Center_B_Downtown_Toronto_2025 + x_Center_B_East_York_2025
 + x_Center_B_Etobicoke_2025 + x_Center_B_Mississauga_East_2025
 + x_Center_B_North_Toronto_2025 + x_Center_B_North_York_2025
 + x_Center_B_Scarborough_East_2025 <= 0
_C54: - 1500 h_Center_C_2025 - 1500 w_Center_C_2025
 + x_Center_C_Downtown_Toronto_2025 + x_Center_C_East_York_2025
 + x_Center_C_Etobicoke_2025 + x_Center_C_Mississauga_East_2025
 + x_Center_C_North_Toronto_2025 + x_Center_C_North_York_2025
 + x_Center_C_Scarborough_East_2025 <= 0
_C55: - 1500 h_Center_D_2025 - 1500 w_Center_D_2025
 + x_Center_D_Downtown_Toronto_2025 + x_Center_D_East_York_2025
 + x_Center_D_Etobicoke_2025 + x_Center_D_Mississauga_East_2025
 + x_Center_D_North_Toronto_2025 + x_Center_D_North_York_2025
 + x_Center_D_Scarborough_East_2025 <= 0
_C56: - 1500 h_Center_E_2025 - 1500 w_Center_E_2025
 + x_Center_E_Downtown_Toronto_2025 + x_Center_E_East_York_2025
 + x_Center_E_Etobicoke_2025 + x_Center_E_Mississauga_East_2025
 + x_Center_E_North_Toronto_2025 + x_Center_E_North_York_2025
 + x_Center_E_Scarborough_East_2025 <= 0
_C57: - 1500 h_Center_F_2025 - 1500 w_Center_F_2025
 + x_Center_F_Downtown_Toronto_2025 + x_Center_F_East_York_2025
 + x_Center_F_Etobicoke_2025 + x_Center_F_Mississauga_East_2025
 + x_Center_F_North_Toronto_2025 + x_Center_F_North_York_2025
 + x_Center_F_Scarborough_East_2025 <= 0
_C58: w_Center_A_2023 + w_Center_B_2023 + w_Center_C_2023 + w_Center_D_2023
 + w_Center_E_2023 + w_Center_F_2023 = 560
_C59: - h_Center_A_2023 - w_Center_A_2023 + w_Center_A_2024 = 0
_C6: x_Center_A_North_York_2023 + x_Center_B_North_York_2023
 + x_Center_C_North_York_2023 + x_Center_D_North_York_2023
 + x_Center_E_North_York_2023 + x_Center_F_North_York_2023 = 516921.469214
_C60: - h_Center_A_2024 - w_Center_A_2024 + w_Center_A_2025 = 0
_C61: - h_Center_B_2023 - w_Center_B_2023 + w_Center_B_2024 = 0
_C62: - h_Center_B_2024 - w_Center_B_2024 + w_Center_B_2025 = 0
_C63: - h_Center_C_2023 - w_Center_C_2023 + w_Center_C_2024 = 0
_C64: - h_Center_C_2024 - w_Center_C_2024 + w_Center_C_2025 = 0
_C65: - h_Center_D_2023 - w_Center_D_2023 + w_Center_D_2024 = 0
_C66: - h_Center_D_2024 - w_Center_D_2024 + w_Center_D_2025 = 0
_C67: - h_Center_E_2023 - w_Center_E_2023 + w_Center_E_2024 = 0
_C68: - h_Center_E_2024 - w_Center_E_2024 + w_Center_E_2025 = 0
_C69: - h_Center_F_2023 - w_Center_F_2023 + w_Center_F_2024 = 0
_C7: x_Center_A_Scarborough_East_2023 + x_Center_B_Scarborough_East_2023
 + x_Center_C_Scarborough_East_2023 + x_Center_D_Scarborough_East_2023
 + x_Center_E_Scarborough_East_2023 + x_Center_F_Scarborough_East_2023
 = 453092.70561
_C70: - h_Center_F_2024 - w_Center_F_2024 + w_Center_F_2025 = 0
_C8: x_Center_A_Downtown_Toronto_2024 + x_Center_B_Downtown_Toronto_2024
 + x_Center_C_Downtown_Toronto_2024 + x_Center_D_Downtown_Toronto_2024
 + x_Center_E_Downtown_Toronto_2024 + x_Center_F_Downtown_Toronto_2024
 = 422488.501721
_C9: x_Center_A_East_York_2024 + x_Center_B_East_York_2024
 + x_Center_C_East_York_2024 + x_Center_D_East_York_2024
 + x_Center_E_East_York_2024 + x_Center_F_East_York_2024 = 292698.444469
Bounds
 0 <= h_Center_A_2023 <= 300
 0 <= h_Center_A_2024 <= 300
 0 <= h_Center_A_2025 <= 300
 0 <= h_Center_B_2023 <= 300
 0 <= h_Center_B_2024 <= 300
 0 <= h_Center_B_2025 <= 300
 0 <= h_Center_C_2023 <= 300
 0 <= h_Center_C_2024 <= 300
 0 <= h_Center_C_2025 <= 300
 0 <= h_Center_D_2023 <= 300
 0 <= h_Center_D_2024 <= 300
 0 <= h_Center_D_2025 <= 300
 0 <= h_Center_E_2023 <= 300
 0 <= h_Center_E_2024 <= 300
 0 <= h_Center_E_2025 <= 300
 0 <= h_Center_F_2023 <= 300
 0 <= h_Center_F_2024 <= 300
 0 <= h_Center_F_2025 <= 300
 0 <= w_Center_A_2023
 0 <= w_Center_A_2024
 0 <= w_Center_A_2025
 0 <= w_Center_B_2023
 0 <= w_Center_B_2024
 0 <= w_Center_B_2025
 0 <= w_Center_C_2023
 0 <= w_Center_C_2024
 0 <= w_Center_C_2025
 0 <= w_Center_D_2023
 0 <= w_Center_D_2024
 0 <= w_Center_D_2025
 0 <= w_Center_E_2023
 0 <= w_Center_E_2024
 0 <= w_Center_E_2025
 0 <= w_Center_F_2023
 0 <= w_Center_F_2024
 0 <= w_Center_F_2025
Generals
h_Center_A_2023
h_Center_A_2024
h_Center_A_2025
h_Center_B_2023
h_Center_B_2024
h_Center_B_2025
h_Center_C_2023
h_Center_C_2024
h_Center_C_2025
h_Center_D_2023
h_Center_D_2024
h_Center_D_2025
h_Center_E_2023
h_Center_E_2024
h_Center_E_2025
h_Center_F_2023
h_Center_F_2024
h_Center_F_2025
w_Center_A_2023
w_Center_A_2024
w_Center_A_2025
w_Center_B_2023
w_Center_B_2024
w_Center_B_2025
w_Center_C_2023
w_Center_C_2024
w_Center_C_2025
w_Center_D_2023
w_Center_D_2024
w_Center_D_2025
w_Center_E_2023
w_Center_E_2024
w_Center_E_2025
w_Center_F_2023
w_Center_F_2024
w_Center_F_2025
Binaries
y_Center_A_2023
y_Center_A_2024
y_Center_A_2025
y_Center_B_2023
y_Center_B_2024
y_Center_B_2025
y_Center_C_2023
y_Center_C_2024
y_Center_C_2025
y_Center_D_2023
y_Center_D_2024
y_Center_D_2025
y_Center_E_2023
y_Center_E_2024
y_Center_E_2025
y_Center_F_2023
y_Center_F_2024
y_Center_F_2025
End
